
Log started (V11.0.0) Wed Apr 16 12:08:33 2008

Tried aggregator 1 time.
Reduced MIP has 140 rows, 4001 columns, and 8040 nonzeros.
Presolve time =    0.03 sec.
Clique table members: 100.
MIP emphasis: balance optimality and feasibility.
MIP search method: dynamic search.
Parallel mode: none, using 1 thread.
Root relaxation solution time =    0.09 sec.

        Nodes                                         Cuts/
   Node  Left     Objective  IInf  Best Integer     Best Node    ItCnt     Gap

*     0+    0                         5407.0000       29.9450      640   99.45%
*     0+    0                           41.0000       29.9450      640   26.96%
      0     0       30.0152    77       41.0000      Fract: 5      648   26.79%
*     0+    0                           40.0000       30.0152      648   24.96%
      0     0       30.8480   125       40.0000   MIRcuts: 34      741   22.88%
      0     0       31.1200   144       40.0000   MIRcuts: 34      861   22.20%
*     0+    0                           39.0000       31.1200      861   20.21%
      0     0       31.3271   160       39.0000   MIRcuts: 27      980   19.67%
      0     0       31.4262   177       39.0000   MIRcuts: 23     1080   19.42%
      0     0       31.5277   168       39.0000   MIRcuts: 19     1196   19.16%
      0     0       31.5566   187       39.0000   MIRcuts: 16     1259   19.09%
*     0+    0                           38.0000       31.5566     1259   16.96%
      0     0       31.5806   180       38.0000   MIRcuts: 12     1302   16.89%
      0     0       31.6008   182       38.0000   MIRcuts: 12     1342   16.84%
      0     0       31.6078   180       38.0000       Cuts: 8     1366   16.82%
      0     0       31.6142   186       38.0000    MIRcuts: 7     1390   16.80%
      0     0       31.6182   186       38.0000    MIRcuts: 5     1416   16.79%
      0     0       31.6225   189       38.0000    MIRcuts: 6     1448   16.78%
*     0+    0                           37.0000       31.6225     1448   14.53%
      0     0       31.6258   189       37.0000    MIRcuts: 5     1484   14.52%
      0     0       31.6279   193       37.0000    MIRcuts: 9     1513   14.52%
*     0+    0                           36.0000       31.6279     1513   12.14%
*     0+    0                           35.0000       31.6279     1513    9.63%

Repeating presolve.
Tried aggregator 1 time.
MIP Presolve eliminated 0 rows and 2966 columns.
MIP Presolve modified 310 coefficients.
Reduced MIP has 140 rows, 1035 columns, and 2108 nonzeros.
Tried aggregator 1 time.
Represolve time =    0.05 sec.
Clique table members: 319.
MIP emphasis: balance optimality and feasibility.
MIP search method: dynamic search.
Parallel mode: none, using 1 thread.
Root relaxation solution time =    0.05 sec.

        Nodes                                         Cuts/
   Node  Left     Objective  IInf  Best Integer     Best Node    ItCnt     Gap

      0     0       32.0000   147       35.0000       32.0000      447    8.57%
      0     2       32.0000   147       35.0000       32.0000      447    8.57%
    100    96       34.0000    56       35.0000       32.0000     5209    8.57%
*   148    75      integral     0       34.0000       32.0000     9642    5.88%
    200    23    infeasible             34.0000       33.0000    26272    2.94%

Clique cuts applied:  1
Cover cuts applied:  124
Mixed integer rounding cuts applied:  92

Solution pool: 9 solutions saved.

MIP - Integer optimal solution:  Objective = 3.4000000000e+001
Solution time =    7.83 sec.  Iterations = 34618  Nodes = 224


Incumbent solution
Variable Name           Solution Value
Cmax                         34.000000
X_1_5                         1.000000
X_2_3                         1.000000
X_3_38                        1.000000
X_4_31                        1.000000
X_5_36                        1.000000
X_6_9                         1.000000
X_7_27                        1.000000
X_8_29                        1.000000
X_9_23                        1.000000
X_10_9                        1.000000
X_11_22                       1.000000
X_12_39                       1.000000
X_13_15                       1.000000
X_14_12                       1.000000
X_15_16                       1.000000
X_16_21                       1.000000
X_17_28                       1.000000
X_18_26                       1.000000
X_19_35                       1.000000
X_20_1                        1.000000
X_21_34                       1.000000
X_22_26                       1.000000
X_23_24                       1.000000
X_24_7                        1.000000
X_25_32                       1.000000
X_26_33                       1.000000
X_27_16                       1.000000
X_28_5                        1.000000
X_29_32                       1.000000
X_30_12                       1.000000
X_31_29                       1.000000
X_32_21                       1.000000
X_33_37                       1.000000
X_34_29                       1.000000
X_35_11                       1.000000
X_36_18                       1.000000
X_37_4                        1.000000
X_38_16                       1.000000
X_39_1                        1.000000
X_40_3                        1.000000
X_41_40                       1.000000
X_42_40                       1.000000
X_43_39                       1.000000
X_44_36                       1.000000
X_45_40                       1.000000
X_46_30                       1.000000
X_47_25                       1.000000
X_48_11                       1.000000
X_49_13                       1.000000
X_50_28                       1.000000
X_51_34                       1.000000
X_52_24                       1.000000
X_53_23                       1.000000
X_54_22                       1.000000
X_55_27                       1.000000
X_56_30                       1.000000
X_57_14                       1.000000
X_58_31                       1.000000
X_59_20                       1.000000
X_60_6                        1.000000
X_61_8                        1.000000
X_62_32                       1.000000
X_63_6                        1.000000
X_64_2                        1.000000
X_65_5                        1.000000
X_66_20                       1.000000
X_67_19                       1.000000
X_68_28                       1.000000
X_69_17                       1.000000
X_70_9                        1.000000
X_71_25                       1.000000
X_72_38                       1.000000
X_73_4                        1.000000
X_74_37                       1.000000
X_75_37                       1.000000
X_76_33                       1.000000
X_77_33                       1.000000
X_78_19                       1.000000
X_79_24                       1.000000
X_80_35                       1.000000
X_81_10                       1.000000
X_82_26                       1.000000
X_83_10                       1.000000
X_84_4                        1.000000
X_85_27                       1.000000
X_86_15                       1.000000
X_87_8                        1.000000
X_88_19                       1.000000
X_89_13                       1.000000
X_90_14                       1.000000
X_91_7                        1.000000
X_92_17                       1.000000
X_93_25                       1.000000
X_94_22                       1.000000
X_95_20                       1.000000
X_96_18                       1.000000
X_97_39                       1.000000
X_98_36                       1.000000
X_99_17                       1.000000
X_100_2                       1.000000
All other variables in the range 1-4001 are 0.
